# Solution for model hydro
# Objective value = 1.3500999999790660e+04
bid_price_X_0_0_0 0
bid_price_X_0_0_1 0
bid_price_X_0_1_0 0
bid_price_X_0_1_1 0
bid_price_X_0_2_0 0
bid_price_X_0_2_1 0
bid_price_X_0_3_0 0
bid_price_X_0_3_1 0
bid_price_X_0_4_0 0
bid_price_X_0_4_1 0
bid_price_X_0_5_0 0
bid_price_X_0_5_1 0
bid_price_X_0_6_0 0
bid_price_X_0_6_1 0
bid_price_X_0_7_0 0
bid_price_X_0_7_1 0
bid_price_X_0_8_0 0
bid_price_X_0_8_1 0
bid_price_X_0_9_0 0
bid_price_X_0_9_1 0
bid_price_X_1_0_0 0
bid_price_X_1_0_1 0
bid_price_X_1_1_0 0
bid_price_X_1_1_1 0
bid_price_X_1_2_0 0
bid_price_X_1_2_1 0
bid_price_X_1_3_0 0
bid_price_X_1_3_1 0
bid_price_X_1_4_0 0
bid_price_X_1_4_1 0
bid_price_X_1_5_0 0
bid_price_X_1_5_1 0
bid_price_X_1_6_0 0
bid_price_X_1_6_1 0
bid_price_X_1_7_0 0
bid_price_X_1_7_1 0
bid_price_X_1_8_0 0
bid_price_X_1_8_1 0
bid_price_X_1_9_0 0
bid_price_X_1_9_1 0
bid_price_X_2_0_0 0
bid_price_X_2_0_1 0
bid_price_X_2_1_0 0
bid_price_X_2_1_1 0
bid_price_X_2_2_0 0
bid_price_X_2_2_1 0
bid_price_X_2_3_0 0
bid_price_X_2_3_1 0
bid_price_X_2_4_0 0
bid_price_X_2_4_1 0
bid_price_X_2_5_0 0
bid_price_X_2_5_1 0
bid_price_X_2_6_0 0
bid_price_X_2_6_1 0
bid_price_X_2_7_0 0
bid_price_X_2_7_1 0
bid_price_X_2_8_0 0
bid_price_X_2_8_1 0
bid_price_X_2_9_0 0
bid_price_X_2_9_1 0
production_quantity_X_0_0_0 0
production_quantity_X_0_0_1 6.2409473929533846e+01
production_quantity_X_0_0_2 0
production_quantity_X_0_1_0 0
production_quantity_X_0_1_1 0
production_quantity_X_0_1_2 6.4735786665335269e+01
production_quantity_X_0_2_0 6.5648399522876502e+01
production_quantity_X_0_2_1 0
production_quantity_X_0_2_2 0
production_quantity_X_0_3_0 0
production_quantity_X_0_3_1 0
production_quantity_X_0_3_2 6.0549275735878979e+01
production_quantity_X_0_4_0 0
production_quantity_X_0_4_1 0
production_quantity_X_0_4_2 6.6184202552992161e+01
production_quantity_X_0_5_0 0
production_quantity_X_0_5_1 6.7241847123777774e+01
production_quantity_X_0_5_2 0
production_quantity_X_0_6_0 0
production_quantity_X_0_6_1 6.1790789026837672e+01
production_quantity_X_0_6_2 0
production_quantity_X_0_7_0 6.7682963173813476e+01
production_quantity_X_0_7_1 0
production_quantity_X_0_7_2 0
production_quantity_X_0_8_0 0
production_quantity_X_0_8_1 0
production_quantity_X_0_8_2 6.8875074659831938e+01
production_quantity_X_0_9_0 0
production_quantity_X_0_9_1 6.3030710952923954e+01
production_quantity_X_0_9_2 0
production_quantity_X_1_0_0 0
production_quantity_X_1_0_1 0
production_quantity_X_1_0_2 7.2961902463454877e+01
production_quantity_X_1_1_0 0
production_quantity_X_1_1_1 0
production_quantity_X_1_1_2 7.6389982198118432e+01
production_quantity_X_1_2_0 0
production_quantity_X_1_2_1 0
production_quantity_X_1_2_2 7.7939733422769677e+01
production_quantity_X_1_3_0 0
production_quantity_X_1_3_1 0
production_quantity_X_1_3_2 6.9234884753567158e+01
production_quantity_X_1_4_0 0
production_quantity_X_1_4_1 7.8940711176590867e+01
production_quantity_X_1_4_2 0
production_quantity_X_1_5_0 0
production_quantity_X_1_5_1 0
production_quantity_X_1_5_2 8.0886802428414725e+01
production_quantity_X_1_6_0 0
production_quantity_X_1_6_1 7.1590283753757731e+01
production_quantity_X_1_6_2 0
production_quantity_X_1_7_0 8.1737213460008448e+01
production_quantity_X_1_7_1 0
production_quantity_X_1_7_2 0
production_quantity_X_1_8_0 8.3914238879943355e+01
production_quantity_X_1_8_1 0
production_quantity_X_1_8_2 0
production_quantity_X_1_9_0 0
production_quantity_X_1_9_1 7.4231068788537485e+01
production_quantity_X_1_9_2 0
production_quantity_X_2_0_0 0
production_quantity_X_2_0_1 100
production_quantity_X_2_0_2 4.4628623598142326e+01
production_quantity_X_2_1_0 0
production_quantity_X_2_1_1 105
production_quantity_X_2_1_2 3.3874231132010891e+01
production_quantity_X_2_2_0 2.6411867051690024e+01
production_quantity_X_2_2_1 110
production_quantity_X_2_2_2 0
production_quantity_X_2_3_0 3.5215839504162744e+01
production_quantity_X_2_3_1 0
production_quantity_X_2_3_2 115
production_quantity_X_2_4_0 120
production_quantity_X_2_4_1 2.9875086266727720e+01
production_quantity_X_2_4_2 0
production_quantity_X_2_5_0 2.1871350445905477e+01
production_quantity_X_2_5_1 0
production_quantity_X_2_5_2 125
production_quantity_X_2_6_0 130
production_quantity_X_2_6_1 3.1618927214884053e+01
production_quantity_X_2_6_2 0
production_quantity_X_2_7_0 2.5579823363788847e+01
production_quantity_X_2_7_1 135
production_quantity_X_2_7_2 0
production_quantity_X_2_8_0 0
production_quantity_X_2_8_1 140
production_quantity_X_2_8_2 1.7210686459371743e+01
production_quantity_X_2_9_0 0
production_quantity_X_2_9_1 145
production_quantity_X_2_9_2 2.7738220256753948e+01
storage_volume_X_X_0_0 1.9759052607046615e+02
storage_volume_X_X_0_1 1.9526421333466473e+02
storage_volume_X_X_0_2 1.9435160047712350e+02
storage_volume_X_X_0_3 1.9945072426412102e+02
storage_volume_X_X_0_4 1.9881579744700784e+02
storage_volume_X_X_0_5 1.9775815287622223e+02
storage_volume_X_X_0_6 2.0320921097316233e+02
storage_volume_X_X_0_7 2.0231703682618652e+02
storage_volume_X_X_0_8 2.0112492534016806e+02
storage_volume_X_X_0_9 2.0696928904707605e+02
storage_volume_X_X_1_0 1.3462862360701124e+02
storage_volume_X_X_1_1 1.2887423113654623e+02
storage_volume_X_X_1_2 1.2641186705435388e+02
storage_volume_X_X_1_3 1.4021583951055385e+02
storage_volume_X_X_1_4 1.3487508627041697e+02
storage_volume_X_X_1_5 1.3187135044780752e+02
storage_volume_X_X_1_6 1.4661892721940458e+02
storage_volume_X_X_1_7 1.4057982336617809e+02
storage_volume_X_X_1_8 1.3721068646022465e+02
storage_volume_X_X_1_9 1.5273822025853858e+02
storage_volume_X_X_2_0 8.8689091626292793e-09
storage_volume_X_X_2_1 4.5353374389378587e-09
storage_volume_X_X_2_2 2.6638531380740460e-09
storage_volume_X_X_2_3 6.3911045344866579e-09
storage_volume_X_X_2_4 3.6892515709041618e-09
storage_volume_X_X_2_5 1.9020376385014970e-09
storage_volume_X_X_2_6 4.5205297283246182e-09
storage_volume_X_X_2_7 2.3892425815574825e-09
storage_volume_X_X_2_8 8.5290707829699386e-10
storage_volume_X_X_2_9 1.7846275568444980e-09
imbalance_volume_X_X_0_0 5.7691235221675155e-11
imbalance_volume_X_X_0_1 6.3009707364279889e-11
imbalance_volume_X_X_0_2 7.0696149934039984e-11
imbalance_volume_X_X_0_3 6.2286240782875578e-11
imbalance_volume_X_X_0_4 7.1317506894942228e-11
imbalance_volume_X_X_0_5 7.7921715181099164e-11
imbalance_volume_X_X_0_6 6.9706422518568444e-11
imbalance_volume_X_X_0_7 7.8901542949623123e-11
imbalance_volume_X_X_0_8 8.4337126758236554e-11
imbalance_volume_X_X_0_9 7.7755308460210261e-11
imbalance_volume_X_X_1_0 4.5911334698472144e-11
imbalance_volume_X_X_1_1 5.9724982281642612e-11
imbalance_volume_X_X_1_2 6.4257632968860750e-11
imbalance_volume_X_X_1_3 4.5208048598844438e-11
imbalance_volume_X_X_1_4 6.7376055457931047e-11
imbalance_volume_X_X_1_5 7.1309832319227601e-11
imbalance_volume_X_X_1_6 5.3040996462754392e-11
imbalance_volume_X_X_1_7 7.4938518663372678e-11
imbalance_volume_X_X_1_8 7.7892403523850173e-11
imbalance_volume_X_X_1_9 6.1790858762140091e-11
imbalance_volume_X_X_2_0 1.9236348451941516e-10
imbalance_volume_X_X_2_1 1.1131728573410272e-10
imbalance_volume_X_X_2_2 9.8701087156997374e-11
imbalance_volume_X_X_2_3 2.1288602972311408e-10
imbalance_volume_X_X_2_4 1.4228096441084113e-10
imbalance_volume_X_X_2_5 1.1945977669684010e-10
imbalance_volume_X_X_2_6 2.4496393748310707e-10
imbalance_volume_X_X_2_7 1.7563755848714489e-10
imbalance_volume_X_X_2_8 1.4038353537361930e-10
imbalance_volume_X_X_2_9 2.6949287057262677e-10
b_v_X_0_0_0 3.2451689705401208e+01
b_v_X_0_0_1 2.9957784224074942e+01
b_v_X_0_1_0 3.2451689705401208e+01
b_v_X_0_1_1 3.2284096959871079e+01
b_v_X_0_2_0 3.2451689705401208e+01
b_v_X_0_2_1 3.3196709817404695e+01
b_v_X_0_3_0 3.2451689705401208e+01
b_v_X_0_3_1 2.8097586030415457e+01
b_v_X_0_4_0 3.2451689705401208e+01
b_v_X_0_4_1 3.3732512847519558e+01
b_v_X_0_5_0 3.2451689705401208e+01
b_v_X_0_5_1 3.4790157418298605e+01
b_v_X_0_6_0 3.2451689705401208e+01
b_v_X_0_6_1 2.9339099321366831e+01
b_v_X_0_7_0 3.2451689705401208e+01
b_v_X_0_7_1 3.5231273468333328e+01
b_v_X_0_8_0 3.2451689705401208e+01
b_v_X_0_8_1 3.6423384954346531e+01
b_v_X_0_9_0 3.2451689705401208e+01
b_v_X_0_9_1 3.0579021247444970e+01
b_v_X_1_0_0 3.8723286100795036e+01
b_v_X_1_0_1 3.4238616362613968e+01
b_v_X_1_1_0 3.8723286100795036e+01
b_v_X_1_1_1 3.7666696097263639e+01
b_v_X_1_2_0 3.8723286100795036e+01
b_v_X_1_2_1 3.9216447321910408e+01
b_v_X_1_3_0 3.8723286100795036e+01
b_v_X_1_3_1 3.0511598652726917e+01
b_v_X_1_4_0 3.8723286100795036e+01
b_v_X_1_4_1 4.0217425075728457e+01
b_v_X_1_5_0 3.8723286100795036e+01
b_v_X_1_5_1 4.2163516327548408e+01
b_v_X_1_6_0 3.8723286100795036e+01
b_v_X_1_6_1 3.2866997652909674e+01
b_v_X_1_7_0 3.8723286100795036e+01
b_v_X_1_7_1 4.3013927359138478e+01
b_v_X_1_8_0 3.8723286100795036e+01
b_v_X_1_8_1 4.5190952779070429e+01
b_v_X_1_9_0 3.8723286100795036e+01
b_v_X_1_9_1 3.5507782687680674e+01
b_v_X_2_0_0 7.4350600173092630e+01
b_v_X_2_0_1 7.0278023424857324e+01
b_v_X_2_1_0 7.4350600173092630e+01
b_v_X_2_1_1 6.4523630958806947e+01
b_v_X_2_2_0 7.4350600173092630e+01
b_v_X_2_2_1 6.2061266878498742e+01
b_v_X_2_3_0 7.4350600173092630e+01
b_v_X_2_3_1 7.5865239330857221e+01
b_v_X_2_4_0 7.4350600173092630e+01
b_v_X_2_4_1 7.5524486093492854e+01
b_v_X_2_5_0 7.4350600173092630e+01
b_v_X_2_5_1 7.2520750272693348e+01
b_v_X_2_6_0 7.4350600173092630e+01
b_v_X_2_6_1 8.7268327041546456e+01
b_v_X_2_7_0 7.4350600173092630e+01
b_v_X_2_7_1 8.6229223190520557e+01
b_v_X_2_8_0 7.4350600173092630e+01
b_v_X_2_8_1 8.2860086286138753e+01
b_v_X_2_9_0 7.4350600173092630e+01
b_v_X_2_9_1 9.8387620083391795e+01
p_c_0_0_0_0 46
p_c_0_0_0_1 46
p_c_0_0_1_0 46
p_c_0_0_1_1 46
p_c_0_1_0_0 46
p_c_0_1_0_1 46
p_c_0_1_1_0 46
p_c_0_1_1_1 46
p_c_0_2_0_0 46
p_c_0_2_0_1 46
p_c_0_2_1_0 46
p_c_0_2_1_1 46
p_c_0_3_0_0 46
p_c_0_3_0_1 46
p_c_0_3_1_0 46
p_c_0_3_1_1 46
p_c_0_4_0_0 46
p_c_0_4_0_1 46
p_c_0_4_1_0 46
p_c_0_4_1_1 46
p_c_0_5_0_0 46
p_c_0_5_0_1 46
p_c_0_5_1_0 46
p_c_0_5_1_1 46
p_c_0_6_0_0 46
p_c_0_6_0_1 46
p_c_0_6_1_0 46
p_c_0_6_1_1 46
p_c_0_7_0_0 46
p_c_0_7_0_1 46
p_c_0_7_1_0 46
p_c_0_7_1_1 46
p_c_0_8_0_0 46
p_c_0_8_0_1 46
p_c_0_8_1_0 46
p_c_0_8_1_1 46
p_c_0_9_0_0 46
p_c_0_9_0_1 46
p_c_0_9_1_0 46
p_c_0_9_1_1 46
p_c_1_0_0_0 46
p_c_1_0_0_1 46
p_c_1_0_1_0 46
p_c_1_0_1_1 46
p_c_1_1_0_0 46
p_c_1_1_0_1 46
p_c_1_1_1_0 46
p_c_1_1_1_1 46
p_c_1_2_0_0 46
p_c_1_2_0_1 46
p_c_1_2_1_0 46
p_c_1_2_1_1 46
p_c_1_3_0_0 46
p_c_1_3_0_1 46
p_c_1_3_1_0 46
p_c_1_3_1_1 46
p_c_1_4_0_0 46
p_c_1_4_0_1 46
p_c_1_4_1_0 46
p_c_1_4_1_1 46
p_c_1_5_0_0 46
p_c_1_5_0_1 46
p_c_1_5_1_0 46
p_c_1_5_1_1 46
p_c_1_6_0_0 46
p_c_1_6_0_1 46
p_c_1_6_1_0 46
p_c_1_6_1_1 46
p_c_1_7_0_0 46
p_c_1_7_0_1 46
p_c_1_7_1_0 46
p_c_1_7_1_1 46
p_c_1_8_0_0 46
p_c_1_8_0_1 46
p_c_1_8_1_0 46
p_c_1_8_1_1 46
p_c_1_9_0_0 46
p_c_1_9_0_1 46
p_c_1_9_1_0 46
p_c_1_9_1_1 46
p_c_2_0_0_0 46
p_c_2_0_0_1 46
p_c_2_0_1_0 46
p_c_2_0_1_1 46
p_c_2_1_0_0 46
p_c_2_1_0_1 46
p_c_2_1_1_0 46
p_c_2_1_1_1 46
p_c_2_2_0_0 46
p_c_2_2_0_1 46
p_c_2_2_1_0 46
p_c_2_2_1_1 46
p_c_2_3_0_0 46
p_c_2_3_0_1 46
p_c_2_3_1_0 46
p_c_2_3_1_1 46
p_c_2_4_0_0 46
p_c_2_4_0_1 46
p_c_2_4_1_0 46
p_c_2_4_1_1 46
p_c_2_5_0_0 46
p_c_2_5_0_1 46
p_c_2_5_1_0 46
p_c_2_5_1_1 46
p_c_2_6_0_0 46
p_c_2_6_0_1 46
p_c_2_6_1_0 46
p_c_2_6_1_1 46
p_c_2_7_0_0 46
p_c_2_7_0_1 46
p_c_2_7_1_0 46
p_c_2_7_1_1 46
p_c_2_8_0_0 46
p_c_2_8_0_1 46
p_c_2_8_1_0 46
p_c_2_8_1_1 46
p_c_2_9_0_0 46
p_c_2_9_0_1 46
p_c_2_9_1_0 46
p_c_2_9_1_1 46
v_c_0_0_0_0 3.2451689705401208e+01
v_c_0_0_0_1 0
v_c_0_0_1_0 0
v_c_0_0_1_1 2.9957784224074942e+01
v_c_0_1_0_0 3.2451689705401179e+01
v_c_0_1_0_1 0
v_c_0_1_1_0 0
v_c_0_1_1_1 3.2284096959871079e+01
v_c_0_2_0_0 3.2451689705401193e+01
v_c_0_2_0_1 0
v_c_0_2_1_0 0
v_c_0_2_1_1 3.3196709817404695e+01
v_c_0_3_0_0 3.2451689705401151e+01
v_c_0_3_0_1 0
v_c_0_3_1_0 0
v_c_0_3_1_1 2.8097586030415457e+01
v_c_0_4_0_0 3.2451689705401208e+01
v_c_0_4_0_1 0
v_c_0_4_1_0 0
v_c_0_4_1_1 3.3732512847519558e+01
v_c_0_5_0_0 3.2451689705401236e+01
v_c_0_5_0_1 0
v_c_0_5_1_0 0
v_c_0_5_1_1 3.4790157418298605e+01
v_c_0_6_0_0 3.2451689705401179e+01
v_c_0_6_0_1 0
v_c_0_6_1_0 0
v_c_0_6_1_1 2.9339099321366831e+01
v_c_0_7_0_0 3.2451689705401151e+01
v_c_0_7_0_1 0
v_c_0_7_1_0 0
v_c_0_7_1_1 3.5231273468333328e+01
v_c_0_8_0_0 3.2451689705401137e+01
v_c_0_8_0_1 0
v_c_0_8_1_0 0
v_c_0_8_1_1 3.6423384954346531e+01
v_c_0_9_0_0 3.2451689705401236e+01
v_c_0_9_0_1 0
v_c_0_9_1_0 0
v_c_0_9_1_1 3.0579021247444970e+01
v_c_1_0_0_0 3.8723286100795036e+01
v_c_1_0_0_1 0
v_c_1_0_1_0 0
v_c_1_0_1_1 3.4238616362613968e+01
v_c_1_1_0_0 3.8723286100795065e+01
v_c_1_1_0_1 0
v_c_1_1_1_0 0
v_c_1_1_1_1 3.7666696097263639e+01
v_c_1_2_0_0 3.8723286100794979e+01
v_c_1_2_0_1 0
v_c_1_2_1_0 0
v_c_1_2_1_1 3.9216447321910408e+01
v_c_1_3_0_0 3.8723286100795036e+01
v_c_1_3_0_1 0
v_c_1_3_1_0 0
v_c_1_3_1_1 3.0511598652726917e+01
v_c_1_4_0_0 3.8723286100795036e+01
v_c_1_4_0_1 0
v_c_1_4_1_0 0
v_c_1_4_1_1 4.0217425075728457e+01
v_c_1_5_0_0 3.8723286100795036e+01
v_c_1_5_0_1 0
v_c_1_5_1_0 0
v_c_1_5_1_1 4.2163516327548408e+01
v_c_1_6_0_0 3.8723286100795036e+01
v_c_1_6_0_1 0
v_c_1_6_1_0 0
v_c_1_6_1_1 3.2866997652909674e+01
v_c_1_7_0_0 3.8723286100795050e+01
v_c_1_7_0_1 0
v_c_1_7_1_0 0
v_c_1_7_1_1 4.3013927359138478e+01
v_c_1_8_0_0 3.8723286100795022e+01
v_c_1_8_0_1 0
v_c_1_8_1_0 0
v_c_1_8_1_1 4.5190952779070429e+01
v_c_1_9_0_0 3.8723286100795036e+01
v_c_1_9_0_1 0
v_c_1_9_1_0 0
v_c_1_9_1_1 3.5507782687680674e+01
v_c_2_0_0_0 7.4350600173092630e+01
v_c_2_0_0_1 0
v_c_2_0_1_0 0
v_c_2_0_1_1 7.0278023424857324e+01
v_c_2_1_0_0 7.4350600173092630e+01
v_c_2_1_0_1 0
v_c_2_1_1_0 0
v_c_2_1_1_1 6.4523630958806947e+01
v_c_2_2_0_0 7.4350600173092616e+01
v_c_2_2_0_1 0
v_c_2_2_1_0 0
v_c_2_2_1_1 6.2061266878498742e+01
v_c_2_3_0_0 7.4350600173092630e+01
v_c_2_3_0_1 0
v_c_2_3_1_0 0
v_c_2_3_1_1 7.5865239330857221e+01
v_c_2_4_0_0 7.4350600173092602e+01
v_c_2_4_0_1 0
v_c_2_4_1_0 0
v_c_2_4_1_1 7.5524486093492854e+01
v_c_2_5_0_0 7.4350600173092630e+01
v_c_2_5_0_1 0
v_c_2_5_1_0 0
v_c_2_5_1_1 7.2520750272693348e+01
v_c_2_6_0_0 7.4350600173092658e+01
v_c_2_6_0_1 0
v_c_2_6_1_0 0
v_c_2_6_1_1 8.7268327041546456e+01
v_c_2_7_0_0 7.4350600173092644e+01
v_c_2_7_0_1 0
v_c_2_7_1_0 0
v_c_2_7_1_1 8.6229223190520557e+01
v_c_2_8_0_0 7.4350600173092587e+01
v_c_2_8_0_1 0
v_c_2_8_1_0 0
v_c_2_8_1_1 8.2860086286138753e+01
v_c_2_9_0_0 7.4350600173092644e+01
v_c_2_9_0_1 0
v_c_2_9_1_0 0
v_c_2_9_1_1 9.8387620083391795e+01
pi_c_0_0_0_0 1.4927777264484550e+03
pi_c_0_0_0_1 0
pi_c_0_0_1_0 0
pi_c_0_0_1_1 1.3780580743074443e+03
pi_c_0_1_0_0 1.4927777264484525e+03
pi_c_0_1_0_1 0
pi_c_0_1_1_0 0
pi_c_0_1_1_1 1.4850684601540704e+03
pi_c_0_2_0_0 1.4927777264484539e+03
pi_c_0_2_0_1 0
pi_c_0_2_1_0 0
pi_c_0_2_1_1 1.5270486516006126e+03
pi_c_0_3_0_0 1.4927777264484562e+03
pi_c_0_3_0_1 0
pi_c_0_3_1_0 0
pi_c_0_3_1_1 1.2924889573991113e+03
pi_c_0_4_0_0 1.4927777264484571e+03
pi_c_0_4_0_1 0
pi_c_0_4_1_0 0
pi_c_0_4_1_1 1.5516955909858996e+03
pi_c_0_5_0_0 1.4927777264484560e+03
pi_c_0_5_0_1 0
pi_c_0_5_1_0 0
pi_c_0_5_1_1 1.6003472412417339e+03
pi_c_0_6_0_0 1.4927777264484548e+03
pi_c_0_6_0_1 0
pi_c_0_6_1_0 0
pi_c_0_6_1_1 1.3495985687828766e+03
pi_c_0_7_0_0 1.4927777264484541e+03
pi_c_0_7_0_1 0
pi_c_0_7_1_0 0
pi_c_0_7_1_1 1.6206385795433325e+03
pi_c_0_8_0_0 1.4927777264484564e+03
pi_c_0_8_0_1 0
pi_c_0_8_1_0 0
pi_c_0_8_1_1 1.6754757078999442e+03
pi_c_0_9_0_0 1.4927777264484566e+03
pi_c_0_9_0_1 0
pi_c_0_9_1_0 0
pi_c_0_9_1_1 1.4066349773824677e+03
pi_c_1_0_0_0 1.7812711606365697e+03
pi_c_1_0_0_1 0
pi_c_1_0_1_0 0
pi_c_1_0_1_1 1.5749763526802433e+03
pi_c_1_1_0_0 1.7812711606365729e+03
pi_c_1_1_0_1 0
pi_c_1_1_1_0 0
pi_c_1_1_1_1 1.7326680204741274e+03
pi_c_1_2_0_0 1.7812711606365706e+03
pi_c_1_2_0_1 0
pi_c_1_2_1_0 0
pi_c_1_2_1_1 1.8039565768078801e+03
pi_c_1_3_0_0 1.7812711606365713e+03
pi_c_1_3_0_1 0
pi_c_1_3_1_0 0
pi_c_1_3_1_1 1.4035335380254382e+03
pi_c_1_4_0_0 1.7812711606365715e+03
pi_c_1_4_0_1 0
pi_c_1_4_1_0 0
pi_c_1_4_1_1 1.8500015534835095e+03
pi_c_1_5_0_0 1.7812711606365708e+03
pi_c_1_5_0_1 0
pi_c_1_5_1_0 0
pi_c_1_5_1_1 1.9395217510672264e+03
pi_c_1_6_0_0 1.7812711606365710e+03
pi_c_1_6_0_1 0
pi_c_1_6_1_0 0
pi_c_1_6_1_1 1.5118818920338440e+03
pi_c_1_7_0_0 1.7812711606365729e+03
pi_c_1_7_0_1 0
pi_c_1_7_1_0 0
pi_c_1_7_1_1 1.9786406585203699e+03
pi_c_1_8_0_0 1.7812711606365701e+03
pi_c_1_8_0_1 0
pi_c_1_8_1_0 0
pi_c_1_8_1_1 2.0787838278372401e+03
pi_c_1_9_0_0 1.7812711606365722e+03
pi_c_1_9_0_1 0
pi_c_1_9_1_0 0
pi_c_1_9_1_1 1.6333580036333110e+03
pi_c_2_0_0_0 3.4201276079622608e+03
pi_c_2_0_0_1 0
pi_c_2_0_1_0 0
pi_c_2_0_1_1 3.2327890775434380e+03
pi_c_2_1_0_0 3.4201276079622603e+03
pi_c_2_1_0_1 0
pi_c_2_1_1_0 0
pi_c_2_1_1_1 2.9680870241051198e+03
pi_c_2_2_0_0 3.4201276079622612e+03
pi_c_2_2_0_1 0
pi_c_2_2_1_0 0
pi_c_2_2_1_1 2.8548182764109429e+03
pi_c_2_3_0_0 3.4201276079622608e+03
pi_c_2_3_0_1 0
pi_c_2_3_1_0 0
pi_c_2_3_1_1 3.4898010092194327e+03
pi_c_2_4_0_0 3.4201276079622608e+03
pi_c_2_4_0_1 0
pi_c_2_4_1_0 0
pi_c_2_4_1_1 3.4741263603006714e+03
pi_c_2_5_0_0 3.4201276079622612e+03
pi_c_2_5_0_1 0
pi_c_2_5_1_0 0
pi_c_2_5_1_1 3.3359545125438945e+03
pi_c_2_6_0_0 3.4201276079622603e+03
pi_c_2_6_0_1 0
pi_c_2_6_1_0 0
pi_c_2_6_1_1 4.0143430439111366e+03
pi_c_2_7_0_0 3.4201276079622612e+03
pi_c_2_7_0_1 0
pi_c_2_7_1_0 0
pi_c_2_7_1_1 3.9665442667639454e+03
pi_c_2_8_0_0 3.4201276079622585e+03
pi_c_2_8_0_1 0
pi_c_2_8_1_0 0
pi_c_2_8_1_1 3.8115639691623819e+03
pi_c_2_9_0_0 3.4201276079622603e+03
pi_c_2_9_0_1 0
pi_c_2_9_1_0 0
pi_c_2_9_1_1 4.5258305238360226e+03
